GLKH-1.1/TMP/mEgtspf.pid7178.atsp
NAME : mEgtspf.pid7178.gtsp
TYPE : ATSP
DIMENSION : 60
EDGE_WEIGHT_TYPE : EXPLICIT
EDGE_WEIGHT_FORMAT : FULL_MATRIX
EDGE_WEIGHT_SECTION
999999 5368709 5368709 5368709 5368709 5368709 5368709 5368709 5368709 5368709 5368709 5368709 5368709 5368709 5368709 5368709 5368709 5368709 5368709 5368709 5368792 5368793 5368792 5368791 5368780 5368781 5368780 5368779 5368755 5368754 5368755 5368756 5368801 5368800 5368799 5368800 5368783 5368784 5368783 5368782 5368722 5368721 5368722 5368723 5368785 5368786 5368785 5368784 5368814 5368815 5368814 5368813 5368787 5368788 5368787 5368786 5368818 5368819 5368818 5368817 
5368709 999999 5368709 5368709 5368709 5368709 5368709 5368709 5368709 5368709 5368709 5368709 5368709 5368709 5368709 5368709 5368709 5368709 5368709 5368709 5368743 5368744 5368743 5368742 5368735 5368736 5368735 5368734 5368764 5368763 5368764 5368765 5368736 5368735 5368734 5368735 5368772 5368773 5368772 5368771 5368787 5368788 5368789 5368788 5368774 5368775 5368774 5368773 5368769 5368770 5368769 5368768 5368776 5368777 5368776 5368775 5368773 5368774 5368773 5368772 
5368709 5368709 999999 5368709 5368709 5368709 5368709 5368709 5368709 5368709 5368709 5368709 5368709 5368709 5368709 5368709 5368709 5368709 5368709 5368709 5368761 5368762 5368761 5368760 5368755 5368756 5368755 5368754 5368784 5368783 5368784 5368785 5368734 5368733 5368732 5368733 5368792 5368793 5368792 5368791 5368807 5368808 5368809 5368808 5368794 5368795 5368794 5368793 5368789 5368790 5368789 5368788 5368796 5368797 5368796 5368795 5368793 5368794 5368793 5368792 
5368709 5368709 5368709 999999 5368709 5368709 5368709 5368709 5368709 5368709 5368709 5368709 5368709 5368709 5368709 5368709 5368709 5368709 5368709 5368709 5368725 5368726 5368725 5368724 5368713 5368714 5368713 5368712 5368744 5368743 5368744 5368745 5368732 5368731 5368730 5368731 5368752 5368753 5368752 5368751 5368767 5368768 5368769 5368768 5368754 5368755 5368754 5368753 5368747 5368748 5368747 5368746 5368756 5368757 5368756 5368755 5368751 5368752 5368751 5368750 
5368709 5368709 5368709 5368709 999999 5368709 5368709 5368709 5368709 5368709 5368709 5368709 5368709 5368709 5368709 5368709 5368709 5368709 5368709 5368709 5368804 5368805 5368804 5368803 5368792 5368793 5368792 5368791 5368767 5368766 5368767 5368768 5368813 5368812 5368811 5368812 5368795 5368796 5368795 5368794 5368734 5368733 5368734 5368735 5368797 5368798 5368797 5368796 5368826 5368827 5368826 5368825 5368799 5368800 5368799 5368798 5368830 5368831 5368830 5368829 
5368709 5368709 5368709 5368709 5368709 999999 5368709 5368709 5368709 5368709 5368709 5368709 5368709 5368709 5368709 5368709 5368709 5368709 5368709 5368709 5368819 5368820 5368819 5368818 5368807 5368808 5368807 5368806 5368782 5368781 5368782 5368783 5368828 5368827 5368826 5368827 5368810 5368811 5368810 5368809 5368749 5368748 5368749 5368750 5368812 5368813 5368812 5368811 5368841 5368842 5368841 5368840 5368814 5368815 5368814 5368813 5368845 5368846 5368845 5368844 
5368709 5368709 5368709 5368709 5368709 5368709 999999 5368709 5368709 5368709 5368709 5368709 5368709 5368709 5368709 5368709 5368709 5368709 5368709 5368709 5368747 5368748 5368747 5368746 5368735 5368736 5368735 5368734 5368720 5368719 5368720 5368721 5368756 5368755 5368754 5368755 5368738 5368739 5368738 5368737 5368743 5368744 5368745 5368744 5368740 5368741 5368740 5368739 5368769 5368770 5368769 5368768 5368742 5368743 5368742 5368741 5368773 5368774 5368773 5368772 
5368709 5368709 5368709 5368709 5368709 5368709 5368709 999999 5368709 5368709 5368709 5368709 5368709 5368709 5368709 5368709 5368709 5368709 5368709 5368709 5368760 5368761 5368760 5368759 5368748 5368749 5368748 5368747 5368723 5368722 5368723 5368724 5368769 5368768 5368767 5368768 5368751 5368752 5368751 5368750 5368730 5368731 5368732 5368731 5368753 5368754 5368753 5368752 5368782 5368783 5368782 5368781 5368755 5368756 5368755 5368754 5368786 5368787 5368786 5368785 
5368709 5368709 5368709 5368709 5368709 5368709 5368709 5368709 999999 5368709 5368709 5368709 5368709 5368709 5368709 5368709 5368709 5368709 5368709 5368709 5368729 5368730 5368729 5368728 5368717 5368718 5368717 5368716 5368738 5368737 5368738 5368739 5368738 5368737 5368736 5368737 5368746 5368747 5368746 5368745 5368761 5368762 5368763 5368762 5368748 5368749 5368748 5368747 5368751 5368752 5368751 5368750 5368750 5368751 5368750 5368749 5368755 5368756 5368755 5368754 
5368709 5368709 5368709 5368709 5368709 5368709 5368709 5368709 5368709 999999 5368709 5368709 5368709 5368709 5368709 5368709 5368709 5368709 5368709 5368709 5368747 5368748 5368747 5368746 5368735 5368736 5368735 5368734 5368722 5368721 5368722 5368723 5368756 5368755 5368754 5368755 5368738 5368739 5368738 5368737 5368743 5368744 5368745 5368744 5368740 5368741 5368740 5368739 5368769 5368770 5368769 5368768 5368742 5368743 5368742 5368741 5368773 5368774 5368773 5368772 
5368709 5368709 5368709 5368709 5368709 5368709 5368709 5368709 5368709 5368709 999999 5368709 5368709 5368709 5368709 5368709 5368709 5368709 5368709 5368709 5368723 5368724 5368723 5368722 5368717 5368718 5368717 5368716 5368746 5368745 5368746 5368747 5368730 5368729 5368728 5368729 5368754 5368755 5368754 5368753 5368769 5368770 5368771 5368770 5368756 5368757 5368756 5368755 5368751 5368752 5368751 5368750 5368758 5368759 5368758 5368757 5368755 5368756 5368755 5368754 
5368709 5368709 5368709 5368709 5368709 5368709 5368709 5368709 5368709 5368709 5368709 999999 5368709 5368709 5368709 5368709 5368709 5368709 5368709 5368709 5368726 5368727 5368726 5368725 5368714 5368715 5368714 5368713 5368741 5368740 5368741 5368742 5368735 5368734 5368733 5368734 5368749 5368750 5368749 5368748 5368764 5368765 5368766 5368765 5368751 5368752 5368751 5368750 5368748 5368749 5368748 5368747 5368753 5368754 5368753 5368752 5368752 5368753 5368752 5368751 
5368709 5368709 5368709 5368709 5368709 5368709 5368709 5368709 5368709 5368709 5368709 5368709 999999 5368709 5368709 5368709 5368709 5368709 5368709 5368709 5368762 5368763 5368762 5368761 5368746 5368745 5368746 5368747 5368779 5368778 5368779 5368780 5368771 5368770 5368769 5368770 5368787 5368788 5368787 5368786 5368802 5368803 5368804 5368803 5368789 5368790 5368789 5368788 5368716 5368717 5368716 5368715 5368791 5368792 5368791 5368790 5368720 5368721 5368720 5368719 
5368709 5368709 5368709 5368709 5368709 5368709 5368709 5368709 5368709 5368709 5368709 5368709 5368709 999999 5368709 5368709 5368709 5368709 5368709 5368709 5368817 5368818 5368817 5368816 5368805 5368806 5368805 5368804 5368780 5368779 5368780 5368781 5368826 5368825 5368824 5368825 5368808 5368809 5368808 5368807 5368747 5368746 5368747 5368748 5368810 5368811 5368810 5368809 5368839 5368840 5368839 5368838 5368812 5368813 5368812 5368811 5368843 5368844 5368843 5368842 
5368709 5368709 5368709 5368709 5368709 5368709 5368709 5368709 5368709 5368709 5368709 5368709 5368709 5368709 999999 5368709 5368709 5368709 5368709 5368709 5368727 5368728 5368727 5368726 5368721 5368722 5368721 5368720 5368750 5368749 5368750 5368751 5368726 5368725 5368724 5368725 5368758 5368759 5368758 5368757 5368773 5368774 5368775 5368774 5368760 5368761 5368760 5368759 5368755 5368756 5368755 5368754 5368762 5368763 5368762 5368761 5368759 5368760 5368759 5368758 
5368709 5368709 5368709 5368709 5368709 5368709 5368709 5368709 5368709 5368709 5368709 5368709 5368709 5368709 5368709 999999 5368709 5368709 5368709 5368709 5368767 5368768 5368767 5368766 5368755 5368756 5368755 5368754 5368730 5368729 5368730 5368731 5368776 5368775 5368774 5368775 5368758 5368759 5368758 5368757 5368727 5368728 5368729 5368728 5368760 5368761 5368760 5368759 5368789 5368790 5368789 5368788 5368762 5368763 5368762 5368761 5368793 5368794 5368793 5368792 
5368709 5368709 5368709 5368709 5368709 5368709 5368709 5368709 5368709 5368709 5368709 5368709 5368709 5368709 5368709 5368709 999999 5368709 5368709 5368709 5368748 5368749 5368748 5368747 5368736 5368737 5368736 5368735 5368719 5368718 5368719 5368720 5368757 5368756 5368755 5368756 5368739 5368740 5368739 5368738 5368742 5368743 5368744 5368743 5368741 5368742 5368741 5368740 5368770 5368771 5368770 5368769 5368743 5368744 5368743 5368742 5368774 5368775 5368774 5368773 
5368709 5368709 5368709 5368709 5368709 5368709 5368709 5368709 5368709 5368709 5368709 5368709 5368709 5368709 5368709 5368709 5368709 999999 5368709 5368709 5368755 5368756 5368755 5368754 5368739 5368738 5368739 5368740 5368772 5368771 5368772 5368773 5368764 5368763 5368762 5368763 5368780 5368781 5368780 5368779 5368795 5368796 5368797 5368796 5368782 5368783 5368782 5368781 5368731 5368732 5368731 5368730 5368784 5368785 5368784 5368783 5368735 5368736 5368735 5368734 
5368709 5368709 5368709 5368709 5368709 5368709 5368709 5368709 5368709 5368709 5368709 5368709 5368709 5368709 5368709 5368709 5368709 5368709 999999 5368709 5368746 5368747 5368746 5368745 5368734 5368735 5368734 5368733 5368729 5368728 5368729 5368730 5368755 5368754 5368753 5368754 5368729 5368730 5368729 5368728 5368752 5368753 5368754 5368753 5368731 5368732 5368731 5368730 5368768 5368769 5368768 5368767 5368733 5368734 5368733 5368732 5368772 5368773 5368772 5368771 
5368709 5368709 5368709 5368709 5368709 5368709 5368709 5368709 5368709 5368709 5368709 5368709 5368709 5368709 5368709 5368709 5368709 5368709 5368709 999999 5368840 5368841 5368840 5368839 5368828 5368829 5368828 5368827 5368803 5368802 5368803 5368804 5368849 5368848 5368847 5368848 5368831 5368832 5368831 5368830 5368770 5368769 5368770 5368771 5368833 5368834 5368833 5368832 5368862 5368863 5368862 5368861 5368835 5368836 5368835 5368834 5368866 5368867 5368866 5368865 
5368709 5368709 5368709 5368709 5368709 5368709 5368709 5368709 5368709 5368709 5368709 5368709 5368709 5368709 5368709 5368709 5368709 5368709 5368709 5368709 999999 0 10737418 10737418 5368726 5368727 5368726 5368725 5368755 5368754 5368755 5368756 5368741 5368740 5368739 5368740 5368763 5368764 5368763 5368762 5368778 5368779 5368780 5368779 5368765 5368766 5368765 5368764 5368760 5368761 5368760 5368759 5368767 5368768 5368767 5368766 5368764 5368765 5368764 5368763 
5368709 5368709 5368709 5368709 5368709 5368709 5368709 5368709 5368709 5368709 5368709 5368709 5368709 5368709 5368709 5368709 5368709 5368709 5368709 5368709 10737418 999999 0 10737418 5368727 5368728 5368727 5368726 5368756 5368755 5368756 5368757 5368742 5368741 5368740 5368741 5368764 5368765 5368764 5368763 5368779 5368780 5368781 5368780 5368766 5368767 5368766 5368765 5368761 5368762 5368761 5368760 5368768 5368769 5368768 5368767 5368765 5368766 5368765 5368764 
5368709 5368709 5368709 5368709 5368709 5368709 5368709 5368709 5368709 5368709 5368709 5368709 5368709 5368709 5368709 5368709 5368709 5368709 5368709 5368709 10737418 10737418 999999 0 5368728 5368729 5368728 5368727 5368757 5368756 5368757 5368758 5368743 5368742 5368741 5368742 5368765 5368766 5368765 5368764 5368780 5368781 5368782 5368781 5368767 5368768 5368767 5368766 5368762 5368763 5368762 5368761 5368769 5368770 5368769 5368768 5368766 5368767 5368766 5368765 
5368709 5368709 5368709 5368709 5368709 5368709 5368709 5368709 5368709 5368709 5368709 5368709 5368709 5368709 5368709 5368709 5368709 5368709 5368709 5368709 0 10737418 10737418 999999 5368727 5368728 5368727 5368726 5368756 5368755 5368756 5368757 5368742 5368741 5368740 5368741 5368764 5368765 5368764 5368763 5368779 5368780 5368781 5368780 5368766 5368767 5368766 5368765 5368761 5368762 5368761 5368760 5368768 5368769 5368768 5368767 5368765 5368766 5368765 5368764 
5368709 5368709 5368709 5368709 5368709 5368709 5368709 5368709 5368709 5368709 5368709 5368709 5368709 5368709 5368709 5368709 5368709 5368709 5368709 5368709 5368726 5368727 5368726 5368725 999999 0 10737418 10737418 5368743 5368742 5368743 5368744 5368735 5368734 5368733 5368734 5368751 5368752 5368751 5368750 5368766 5368767 5368768 5368767 5368753 5368754 5368753 5368752 5368746 5368747 5368746 5368745 5368755 5368756 5368755 5368754 5368750 5368751 5368750 5368749 
5368709 5368709 5368709 5368709 5368709 5368709 5368709 5368709 5368709 5368709 5368709 5368709 5368709 5368709 5368709 5368709 5368709 5368709 5368709 5368709 5368727 5368728 5368727 5368726 10737418 999999 0 10737418 5368744 5368743 5368744 5368745 5368736 5368735 5368734 5368735 5368752 5368753 5368752 5368751 5368767 5368768 5368769 5368768 5368754 5368755 5368754 5368753 5368745 5368746 5368745 5368744 5368756 5368757 5368756 5368755 5368749 5368750 5368749 5368748 
5368709 5368709 5368709 5368709 5368709 5368709 5368709 5368709 5368709 5368709 5368709 5368709 5368709 5368709 5368709 5368709 5368709 5368709 5368709 5368709 5368728 5368729 5368728 5368727 10737418 10737418 999999 0 5368745 5368744 5368745 5368746 5368737 5368736 5368735 5368736 5368753 5368754 5368753 5368752 5368768 5368769 5368770 5368769 5368755 5368756 5368755 5368754 5368744 5368745 5368744 5368743 5368757 5368758 5368757 5368756 5368748 5368749 5368748 5368747 
5368709 5368709 5368709 5368709 5368709 5368709 5368709 5368709 5368709 5368709 5368709 5368709 5368709 5368709 5368709 5368709 5368709 5368709 5368709 5368709 5368727 5368728 5368727 5368726 0 10737418 10737418 999999 5368744 5368743 5368744 5368745 5368736 5368735 5368734 5368735 5368752 5368753 5368752 5368751 5368767 5368768 5368769 5368768 5368754 5368755 5368754 5368753 5368745 5368746 5368745 5368744 5368756 5368757 5368756 5368755 5368749 5368750 5368749 5368748 
5368709 5368709 5368709 5368709 5368709 5368709 5368709 5368709 5368709 5368709 5368709 5368709 5368709 5368709 5368709 5368709 5368709 5368709 5368709 5368709 5368757 5368758 5368757 5368756 5368745 5368746 5368745 5368744 999999 0 10737418 10737418 5368766 5368765 5368764 5368765 5368748 5368749 5368748 5368747 5368743 5368744 5368745 5368744 5368750 5368751 5368750 5368749 5368779 5368780 5368779 5368778 5368752 5368753 5368752 5368751 5368783 5368784 5368783 5368782 
5368709 5368709 5368709 5368709 5368709 5368709 5368709 5368709 5368709 5368709 5368709 5368709 5368709 5368709 5368709 5368709 5368709 5368709 5368709 5368709 5368756 5368757 5368756 5368755 5368744 5368745 5368744 5368743 10737418 999999 0 10737418 5368765 5368764 5368763 5368764 5368747 5368748 5368747 5368746 5368742 5368743 5368744 5368743 5368749 5368750 5368749 5368748 5368778 5368779 5368778 5368777 5368751 5368752 5368751 5368750 5368782 5368783 5368782 5368781 
5368709 5368709 5368709 5368709 5368709 5368709 5368709 5368709 5368709 5368709 5368709 5368709 5368709 5368709 5368709 5368709 5368709 5368709 5368709 5368709 5368755 5368756 5368755 5368754 5368743 5368744 5368743 5368742 10737418 10737418 999999 0 5368764 5368763 5368762 5368763 5368746 5368747 5368746 5368745 5368741 5368742 5368743 5368742 5368748 5368749 5368748 5368747 5368777 5368778 5368777 5368776 5368750 5368751 5368750 5368749 5368781 5368782 5368781 5368780 
5368709 5368709 5368709 5368709 5368709 5368709 5368709 5368709 5368709 5368709 5368709 5368709 5368709 5368709 5368709 5368709 5368709 5368709 5368709 5368709 5368756 5368757 5368756 5368755 5368744 5368745 5368744 5368743 0 10737418 10737418 999999 5368765 5368764 5368763 5368764 5368747 5368748 5368747 5368746 5368742 5368743 5368744 5368743 5368749 5368750 5368749 5368748 5368778 5368779 5368778 5368777 5368751 5368752 5368751 5368750 5368782 5368783 5368782 5368781 
5368709 5368709 5368709 5368709 5368709 5368709 5368709 5368709 5368709 5368709 5368709 5368709 5368709 5368709 5368709 5368709 5368709 5368709 5368709 5368709 5368741 5368742 5368741 5368740 5368735 5368736 5368735 5368734 5368764 5368763 5368764 5368765 999999 0 10737418 10737418 5368772 5368773 5368772 5368771 5368787 5368788 5368789 5368788 5368774 5368775 5368774 5368773 5368769 5368770 5368769 5368768 5368776 5368777 5368776 5368775 5368773 5368774 5368773 5368772 
5368709 5368709 5368709 5368709 5368709 5368709 5368709 5368709 5368709 5368709 5368709 5368709 5368709 5368709 5368709 5368709 5368709 5368709 5368709 5368709 5368742 5368743 5368742 5368741 5368736 5368737 5368736 5368735 5368765 5368764 5368765 5368766 10737418 999999 0 10737418 5368773 5368774 5368773 5368772 5368788 5368789 5368790 5368789 5368775 5368776 5368775 5368774 5368770 5368771 5368770 5368769 5368777 5368778 5368777 5368776 5368774 5368775 5368774 5368773 
5368709 5368709 5368709 5368709 5368709 5368709 5368709 5368709 5368709 5368709 5368709 5368709 5368709 5368709 5368709 5368709 5368709 5368709 5368709 5368709 5368741 5368742 5368741 5368740 5368735 5368736 5368735 5368734 5368764 5368763 5368764 5368765 10737418 10737418 999999 0 5368772 5368773 5368772 5368771 5368787 5368788 5368789 5368788 5368774 5368775 5368774 5368773 5368769 5368770 5368769 5368768 5368776 5368777 5368776 5368775 5368773 5368774 5368773 5368772 
5368709 5368709 5368709 5368709 5368709 5368709 5368709 5368709 5368709 5368709 5368709 5368709 5368709 5368709 5368709 5368709 5368709 5368709 5368709 5368709 5368740 5368741 5368740 5368739 5368734 5368735 5368734 5368733 5368763 5368762 5368763 5368764 0 10737418 10737418 999999 5368771 5368772 5368771 5368770 5368786 5368787 5368788 5368787 5368773 5368774 5368773 5368772 5368768 5368769 5368768 5368767 5368775 5368776 5368775 5368774 5368772 5368773 5368772 5368771 
5368709 5368709 5368709 5368709 5368709 5368709 5368709 5368709 5368709 5368709 5368709 5368709 5368709 5368709 5368709 5368709 5368709 5368709 5368709 5368709 5368763 5368764 5368763 5368762 5368751 5368752 5368751 5368750 5368746 5368745 5368746 5368747 5368772 5368771 5368770 5368771 999999 0 10737418 10737418 5368769 5368770 5368771 5368770 5368716 5368717 5368716 5368715 5368785 5368786 5368785 5368784 5368716 5368717 5368716 5368715 5368789 5368790 5368789 5368788 
5368709 5368709 5368709 5368709 5368709 5368709 5368709 5368709 5368709 5368709 5368709 5368709 5368709 5368709 5368709 5368709 5368709 5368709 5368709 5368709 5368764 5368765 5368764 5368763 5368752 5368753 5368752 5368751 5368747 5368746 5368747 5368748 5368773 5368772 5368771 5368772 10737418 999999 0 10737418 5368770 5368771 5368772 5368771 5368715 5368716 5368715 5368714 5368786 5368787 5368786 5368785 5368715 5368716 5368715 5368714 5368790 5368791 5368790 5368789 
5368709 5368709 5368709 5368709 5368709 5368709 5368709 5368709 5368709 5368709 5368709 5368709 5368709 5368709 5368709 5368709 5368709 5368709 5368709 5368709 5368765 5368766 5368765 5368764 5368753 5368754 5368753 5368752 5368748 5368747 5368748 5368749 5368774 5368773 5368772 5368773 10737418 10737418 999999 0 5368771 5368772 5368773 5368772 5368716 5368715 5368714 5368715 5368787 5368788 5368787 5368786 5368714 5368715 5368714 5368713 5368791 5368792 5368791 5368790 
5368709 5368709 5368709 5368709 5368709 5368709 5368709 5368709 5368709 5368709 5368709 5368709 5368709 5368709 5368709 5368709 5368709 5368709 5368709 5368709 5368764 5368765 5368764 5368763 5368752 5368753 5368752 5368751 5368747 5368746 5368747 5368748 5368773 5368772 5368771 5368772 0 10737418 10737418 999999 5368770 5368771 5368772 5368771 5368717 5368716 5368715 5368716 5368786 5368787 5368786 5368785 5368715 5368716 5368715 5368714 5368790 5368791 5368790 5368789 
5368709 5368709 5368709 5368709 5368709 5368709 5368709 5368709 5368709 5368709 5368709 5368709 5368709 5368709 5368709 5368709 5368709 5368709 5368709 5368709 5368780 5368781 5368780 5368779 5368768 5368769 5368768 5368767 5368743 5368742 5368743 5368744 5368789 5368788 5368787 5368788 5368771 5368772 5368771 5368770 999999 0 10737418 10737418 5368773 5368774 5368773 5368772 5368802 5368803 5368802 5368801 5368775 5368776 5368775 5368774 5368806 5368807 5368806 5368805 
5368709 5368709 5368709 5368709 5368709 5368709 5368709 5368709 5368709 5368709 5368709 5368709 5368709 5368709 5368709 5368709 5368709 5368709 5368709 5368709 5368779 5368780 5368779 5368778 5368767 5368768 5368767 5368766 5368742 5368741 5368742 5368743 5368788 5368787 5368786 5368787 5368770 5368771 5368770 5368769 10737418 999999 0 10737418 5368772 5368773 5368772 5368771 5368801 5368802 5368801 5368800 5368774 5368775 5368774 5368773 5368805 5368806 5368805 5368804 
5368709 5368709 5368709 5368709 5368709 5368709 5368709 5368709 5368709 5368709 5368709 5368709 5368709 5368709 5368709 5368709 5368709 5368709 5368709 5368709 5368780 5368781 5368780 5368779 5368768 5368769 5368768 5368767 5368743 5368742 5368743 5368744 5368789 5368788 5368787 5368788 5368771 5368772 5368771 5368770 10737418 10737418 999999 0 5368773 5368774 5368773 5368772 5368802 5368803 5368802 5368801 5368775 5368776 5368775 5368774 5368806 5368807 5368806 5368805 
5368709 5368709 5368709 5368709 5368709 5368709 5368709 5368709 5368709 5368709 5368709 5368709 5368709 5368709 5368709 5368709 5368709 5368709 5368709 5368709 5368781 5368782 5368781 5368780 5368769 5368770 5368769 5368768 5368744 5368743 5368744 5368745 5368790 5368789 5368788 5368789 5368772 5368773 5368772 5368771 0 10737418 10737418 999999 5368774 5368775 5368774 5368773 5368803 5368804 5368803 5368802 5368776 5368777 5368776 5368775 5368807 5368808 5368807 5368806 
5368709 5368709 5368709 5368709 5368709 5368709 5368709 5368709 5368709 5368709 5368709 5368709 5368709 5368709 5368709 5368709 5368709 5368709 5368709 5368709 5368765 5368766 5368765 5368764 5368753 5368754 5368753 5368752 5368748 5368747 5368748 5368749 5368774 5368773 5368772 5368773 5368714 5368715 5368716 5368715 5368771 5368772 5368773 5368772 999999 0 10737418 10737418 5368787 5368788 5368787 5368786 5368714 5368715 5368714 5368713 5368791 5368792 5368791 5368790 
5368709 5368709 5368709 5368709 5368709 5368709 5368709 5368709 5368709 5368709 5368709 5368709 5368709 5368709 5368709 5368709 5368709 5368709 5368709 5368709 5368766 5368767 5368766 5368765 5368754 5368755 5368754 5368753 5368749 5368748 5368749 5368750 5368775 5368774 5368773 5368774 5368715 5368716 5368717 5368716 5368772 5368773 5368774 5368773 10737418 999999 0 10737418 5368788 5368789 5368788 5368787 5368713 5368714 5368715 5368714 5368792 5368793 5368792 5368791 
5368709 5368709 5368709 5368709 5368709 5368709 5368709 5368709 5368709 5368709 5368709 5368709 5368709 5368709 5368709 5368709 5368709 5368709 5368709 5368709 5368767 5368768 5368767 5368766 5368755 5368756 5368755 5368754 5368750 5368749 5368750 5368751 5368776 5368775 5368774 5368775 5368716 5368715 5368716 5368717 5368773 5368774 5368775 5368774 10737418 10737418 999999 0 5368789 5368790 5368789 5368788 5368712 5368713 5368714 5368713 5368793 5368794 5368793 5368792 
5368709 5368709 5368709 5368709 5368709 5368709 5368709 5368709 5368709 5368709 5368709 5368709 5368709 5368709 5368709 5368709 5368709 5368709 5368709 5368709 5368766 5368767 5368766 5368765 5368754 5368755 5368754 5368753 5368749 5368748 5368749 5368750 5368775 5368774 5368773 5368774 5368715 5368714 5368715 5368716 5368772 5368773 5368774 5368773 0 10737418 10737418 999999 5368788 5368789 5368788 5368787 5368713 5368714 5368713 5368712 5368792 5368793 5368792 5368791 
5368709 5368709 5368709 5368709 5368709 5368709 5368709 5368709 5368709 5368709 5368709 5368709 5368709 5368709 5368709 5368709 5368709 5368709 5368709 5368709 5368760 5368761 5368760 5368759 5368744 5368743 5368744 5368745 5368777 5368776 5368777 5368778 5368769 5368768 5368767 5368768 5368785 5368786 5368785 5368784 5368800 5368801 5368802 5368801 5368787 5368788 5368787 5368786 999999 0 10737418 10737418 5368789 5368790 5368789 5368788 5368716 5368717 5368716 5368715 
5368709 5368709 5368709 5368709 5368709 5368709 5368709 5368709 5368709 5368709 5368709 5368709 5368709 5368709 5368709 5368709 5368709 5368709 5368709 5368709 5368761 5368762 5368761 5368760 5368745 5368744 5368745 5368746 5368778 5368777 5368778 5368779 5368770 5368769 5368768 5368769 5368786 5368787 5368786 5368785 5368801 5368802 5368803 5368802 5368788 5368789 5368788 5368787 10737418 999999 0 10737418 5368790 5368791 5368790 5368789 5368715 5368716 5368715 5368714 
5368709 5368709 5368709 5368709 5368709 5368709 5368709 5368709 5368709 5368709 5368709 5368709 5368709 5368709 5368709 5368709 5368709 5368709 5368709 5368709 5368762 5368763 5368762 5368761 5368746 5368745 5368746 5368747 5368779 5368778 5368779 5368780 5368771 5368770 5368769 5368770 5368787 5368788 5368787 5368786 5368802 5368803 5368804 5368803 5368789 5368790 5368789 5368788 10737418 10737418 999999 0 5368791 5368792 5368791 5368790 5368714 5368715 5368714 5368713 
5368709 5368709 5368709 5368709 5368709 5368709 5368709 5368709 5368709 5368709 5368709 5368709 5368709 5368709 5368709 5368709 5368709 5368709 5368709 5368709 5368761 5368762 5368761 5368760 5368745 5368744 5368745 5368746 5368778 5368777 5368778 5368779 5368770 5368769 5368768 5368769 5368786 5368787 5368786 5368785 5368801 5368802 5368803 5368802 5368788 5368789 5368788 5368787 0 10737418 10737418 999999 5368790 5368791 5368790 5368789 5368715 5368716 5368715 5368714 
5368709 5368709 5368709 5368709 5368709 5368709 5368709 5368709 5368709 5368709 5368709 5368709 5368709 5368709 5368709 5368709 5368709 5368709 5368709 5368709 5368767 5368768 5368767 5368766 5368755 5368756 5368755 5368754 5368750 5368749 5368750 5368751 5368776 5368775 5368774 5368775 5368714 5368713 5368714 5368715 5368773 5368774 5368775 5368774 5368714 5368713 5368712 5368713 5368789 5368790 5368789 5368788 999999 0 10737418 10737418 5368793 5368794 5368793 5368792 
5368709 5368709 5368709 5368709 5368709 5368709 5368709 5368709 5368709 5368709 5368709 5368709 5368709 5368709 5368709 5368709 5368709 5368709 5368709 5368709 5368768 5368769 5368768 5368767 5368756 5368757 5368756 5368755 5368751 5368750 5368751 5368752 5368777 5368776 5368775 5368776 5368715 5368714 5368715 5368716 5368774 5368775 5368776 5368775 5368713 5368712 5368713 5368714 5368790 5368791 5368790 5368789 10737418 999999 0 10737418 5368794 5368795 5368794 5368793 
5368709 5368709 5368709 5368709 5368709 5368709 5368709 5368709 5368709 5368709 5368709 5368709 5368709 5368709 5368709 5368709 5368709 5368709 5368709 5368709 5368769 5368770 5368769 5368768 5368757 5368758 5368757 5368756 5368752 5368751 5368752 5368753 5368778 5368777 5368776 5368777 5368716 5368715 5368716 5368717 5368775 5368776 5368777 5368776 5368714 5368713 5368714 5368715 5368791 5368792 5368791 5368790 10737418 10737418 999999 0 5368795 5368796 5368795 5368794 
5368709 5368709 5368709 5368709 5368709 5368709 5368709 5368709 5368709 5368709 5368709 5368709 5368709 5368709 5368709 5368709 5368709 5368709 5368709 5368709 5368768 5368769 5368768 5368767 5368756 5368757 5368756 5368755 5368751 5368750 5368751 5368752 5368777 5368776 5368775 5368776 5368715 5368714 5368715 5368716 5368774 5368775 5368776 5368775 5368715 5368714 5368713 5368714 5368790 5368791 5368790 5368789 0 10737418 10737418 999999 5368794 5368795 5368794 5368793 
5368709 5368709 5368709 5368709 5368709 5368709 5368709 5368709 5368709 5368709 5368709 5368709 5368709 5368709 5368709 5368709 5368709 5368709 5368709 5368709 5368764 5368765 5368764 5368763 5368748 5368747 5368748 5368749 5368781 5368780 5368781 5368782 5368773 5368772 5368771 5368772 5368789 5368790 5368789 5368788 5368804 5368805 5368806 5368805 5368791 5368792 5368791 5368790 5368714 5368713 5368714 5368715 5368793 5368794 5368793 5368792 999999 0 10737418 10737418 
5368709 5368709 5368709 5368709 5368709 5368709 5368709 5368709 5368709 5368709 5368709 5368709 5368709 5368709 5368709 5368709 5368709 5368709 5368709 5368709 5368765 5368766 5368765 5368764 5368749 5368748 5368749 5368750 5368782 5368781 5368782 5368783 5368774 5368773 5368772 5368773 5368790 5368791 5368790 5368789 5368805 5368806 5368807 5368806 5368792 5368793 5368792 5368791 5368715 5368714 5368715 5368716 5368794 5368795 5368794 5368793 10737418 999999 0 10737418 
5368709 5368709 5368709 5368709 5368709 5368709 5368709 5368709 5368709 5368709 5368709 5368709 5368709 5368709 5368709 5368709 5368709 5368709 5368709 5368709 5368766 5368767 5368766 5368765 5368750 5368749 5368750 5368751 5368783 5368782 5368783 5368784 5368775 5368774 5368773 5368774 5368791 5368792 5368791 5368790 5368806 5368807 5368808 5368807 5368793 5368794 5368793 5368792 5368716 5368715 5368716 5368717 5368795 5368796 5368795 5368794 10737418 10737418 999999 0 
5368709 5368709 5368709 5368709 5368709 5368709 5368709 5368709 5368709 5368709 5368709 5368709 5368709 5368709 5368709 5368709 5368709 5368709 5368709 5368709 5368765 5368766 5368765 5368764 5368749 5368748 5368749 5368750 5368782 5368781 5368782 5368783 5368774 5368773 5368772 5368773 5368790 5368791 5368790 5368789 5368805 5368806 5368807 5368806 5368792 5368793 5368792 5368791 5368715 5368714 5368715 5368716 5368794 5368795 5368794 5368793 0 10737418 10737418 999999 
EOF
