GLKH-1.1/TMP/mEgtspf.pid7178.tour
NAME : mEgtspf.pid7178.gtsp.161061359.tour
COMMENT : Length = 161061359
COMMENT : Found by LKH [Keld Helsgaun] Wed Apr  2 15:12:41 2025
TYPE : TOUR
DIMENSION : 60
TOUR_SECTION
1
42
43
44
41
16
8
3
15
35
36
33
34
6
10
20
7
9
4
28
25
26
27
14
19
40
37
38
39
55
56
53
54
46
47
48
45
13
52
49
50
51
60
57
58
59
11
24
21
22
23
12
17
30
31
32
29
2
18
5
-1
EOF
